benchmarks_vrp/CMT2/min_c/CMT2_1.vrp
NAME: CMT2_1
TYPE: CVRP
COMMENT: 835.26 - Cluster Nr.1
DIMENSION: 14
CAPACITY: 140
EDGE_WEIGHT_TYPE: EUC_2D
NODE_COORD_TYPE: TWOD_COORDS
NODE_COORD_SECTION: 
4 52 26
6 45 35
9 38 33
3 43 26
12 54 38
13 40 40
1 48 21
11 45 42
14 40 37
8 62 35
10 51 42
5 55 34
7 50 40
2 50 30
DEPOT_SECTION: 
13
-1
DEMAND_SECTION: 
5 17
3 22
14 20
4 13
7 19
6 30
9 10
12 19
11 30
13 0
2 21
10 27
8 12
1 20
EOF
