benchmarks_vrp/CMT2/min_c/CMT2_1.tour
NAME: CMT2_1 solution
TYPE: TOUR
TOUR_SECTION:
13 6 2 4 1 3 9 14 -1
13 5 8 12 7 10 11 -1
-1
EOF